41388.3
41388.3
41388.3
40830.9
40830.9
40830.9
40830.9
40830.9
40463
40463
40463
39719.9
39719.9
39719.9
39719.9
38993.7
38993.7
37990
37990
37990
37238.7
37238.7
37238.7
37238.7
37238.7
37238.7
37238.7
37238.7
37206.1
37206.1
37206.1
36528
36528
36528
36528
36528
36528
36528
36528
36190.5
36190.5
35954.3
35954.3
35954.3
35124.2
35124.2
35124.2
35124.2
35124.2
35124.2
35124.2
35124.2
35124.2
35124.2
35124.2
35124.2
34927.7
34927.7
34406.3
34406.3
34406.3
34406.3
34406.3
34406.3
34387.7
33467.2
33467.2
33467.2
33467.2
33467.2
33467.2
33467.2
33467.2
33467.2
33286.8
33286.8
33286.8
33286.8
33286.8
33286.8
33286.8
33175.9
33094.8
32593.4
32593.4
32593.4
39136.4
39136.4
38765.3
38765.3
38472.3
38472.3
32291.5
32291.5
31601.5
31601.5
31601.5
31601.5
31601.5
31601.5
